p sp 1600 2230
a 1 41 1
a 1 2 1
a 2 42 1
a 2 1 1
a 5 45 1
a 7 47 1
a 13 53 1
a 15 55 1
a 15 16 1
a 16 56 1
a 16 15 1
a 19 20 1
a 20 60 1
a 20 19 1
a 23 63 1
a 25 26 1
a 26 66 1
a 26 25 1
a 26 27 1
a 27 67 1
a 27 26 1
a 31 71 1
a 35 36 1
a 36 35 1
a 36 37 1
a 37 36 1
a 37 38 1
a 38 37 1
a 38 39 1
a 39 79 1
a 39 38 1
a 39 40 1
a 40 39 1
a 41 1 1
a 41 42 1
a 42 2 1
a 42 41 1
a 42 43 1
a 43 83 1
a 43 42 1
a 43 44 1
a 44 84 1
a 44 43 1
a 44 45 1
a 45 5 1
a 45 44 1
a 45 46 1
a 46 86 1
a 46 45 1
a 46 47 1
a 47 7 1
a 47 46 1
a 47 48 1
a 48 47 1
a 48 49 1
a 49 89 1
a 49 48 1
a 49 50 1
a 50 90 1
a 50 49 1
a 53 13 1
a 53 93 1
a 53 54 1
a 54 94 1
a 54 53 1
a 54 55 1
a 55 15 1
a 55 95 1
a 55 54 1
a 55 56 1
a 56 16 1
a 56 96 1
a 56 55 1
a 58 98 1
a 60 20 1
a 60 100 1
a 60 61 1
a 61 60 1
a 63 23 1
a 63 103 1
a 66 26 1
a 66 67 1
a 67 27 1
a 67 107 1
a 67 66 1
a 67 68 1
a 68 108 1
a 68 67 1
a 70 110 1
a 70 71 1
a 71 31 1
a 71 111 1
a 71 70 1
a 79 39 1
a 83 43 1
a 83 123 1
a 83 84 1
a 84 44 1
a 84 124 1
a 84 83 1
a 86 46 1
a 86 126 1
a 89 49 1
a 89 129 1
a 89 90 1
a 90 50 1
a 90 130 1
a 90 89 1
a 92 132 1
a 92 93 1
a 93 53 1
a 93 92 1
a 93 94 1
a 94 54 1
a 94 134 1
a 94 93 1
a 94 95 1
a 95 55 1
a 95 135 1
a 95 94 1
a 95 96 1
a 96 56 1
a 96 95 1
a 96 97 1
a 97 137 1
a 97 96 1
a 97 98 1
a 98 58 1
a 98 97 1
a 100 60 1
a 103 63 1
a 107 67 1
a 107 147 1
a 107 108 1
a 108 68 1
a 108 107 1
a 108 109 1
a 109 149 1
a 109 108 1
a 109 110 1
a 110 70 1
a 110 109 1
a 110 111 1
a 111 71 1
a 111 110 1
a 114 154 1
a 117 157 1
a 117 118 1
a 118 158 1
a 118 117 1
a 121 161 1
a 123 83 1
a 123 163 1
a 123 124 1
a 124 84 1
a 124 164 1
a 124 123 1
a 126 86 1
a 126 127 1
a 127 167 1
a 127 126 1
a 127 128 1
a 128 127 1
a 128 129 1
a 129 89 1
a 129 169 1
a 129 128 1
a 129 130 1
a 130 90 1
a 130 129 1
a 130 131 1
a 131 130 1
a 131 132 1
a 132 92 1
a 132 172 1
a 132 131 1
a 134 94 1
a 134 174 1
a 134 135 1
a 135 95 1
a 135 175 1
a 135 134 1
a 137 97 1
a 141 181 1
a 141 142 1
a 142 141 1
a 146 186 1
a 146 147 1
a 147 107 1
a 147 187 1
a 147 146 1
a 149 109 1
a 149 189 1
a 153 193 1
a 153 154 1
a 154 114 1
a 154 153 1
a 154 155 1
a 155 154 1
a 157 117 1
a 157 158 1
a 158 118 1
a 158 198 1
a 158 157 1
a 158 159 1
a 159 158 1
a 159 160 1
a 160 200 1
a 160 159 1
a 161 121 1
a 161 201 1
a 161 162 1
a 162 202 1
a 162 161 1
a 162 163 1
a 163 123 1
a 163 203 1
a 163 162 1
a 163 164 1
a 164 124 1
a 164 163 1
a 167 127 1
a 169 129 1
a 169 209 1
a 172 132 1
a 172 212 1
a 174 134 1
a 174 175 1
a 175 135 1
a 175 174 1
a 175 176 1
a 176 216 1
a 176 175 1
a 180 220 1
a 180 181 1
a 181 141 1
a 181 180 1
a 183 184 1
a 184 183 1
a 184 185 1
a 185 225 1
a 185 184 1
a 185 186 1
a 186 146 1
a 186 226 1
a 186 185 1
a 186 187 1
a 187 147 1
a 187 186 1
a 189 149 1
a 189 229 1
a 193 153 1
a 193 233 1
a 198 158 1
a 198 238 1
a 200 160 1
a 200 240 1
a 201 161 1
a 201 241 1
a 201 202 1
a 202 162 1
a 202 242 1
a 202 201 1
a 202 203 1
a 203 163 1
a 203 243 1
a 203 202 1
a 209 169 1
a 211 212 1
a 212 172 1
a 212 211 1
a 212 213 1
a 213 253 1
a 213 212 1
a 216 176 1
a 216 256 1
a 216 217 1
a 217 216 1
a 217 218 1
a 218 217 1
a 220 180 1
a 220 260 1
a 225 185 1
a 225 265 1
a 225 226 1
a 226 186 1
a 226 266 1
a 226 225 1
a 229 189 1
a 229 269 1
a 229 230 1
a 230 229 1
a 232 233 1
a 233 193 1
a 233 273 1
a 233 232 1
a 233 234 1
a 234 274 1
a 234 233 1
a 234 235 1
a 235 275 1
a 235 234 1
a 237 277 1
a 237 238 1
a 238 198 1
a 238 278 1
a 238 237 1
a 238 239 1
a 239 279 1
a 239 238 1
a 239 240 1
a 240 200 1
a 240 239 1
a 241 201 1
a 241 242 1
a 242 202 1
a 242 282 1
a 242 241 1
a 242 243 1
a 243 203 1
a 243 242 1
a 243 244 1
a 244 284 1
a 244 243 1
a 246 286 1
a 248 288 1
a 253 213 1
a 253 293 1
a 255 295 1
a 255 256 1
a 256 216 1
a 256 296 1
a 256 255 1
a 259 260 1
a 260 220 1
a 260 259 1
a 265 225 1
a 265 305 1
a 265 266 1
a 266 226 1
a 266 306 1
a 266 265 1
a 268 269 1
a 269 229 1
a 269 309 1
a 269 268 1
a 273 233 1
a 273 313 1
a 273 274 1
a 274 234 1
a 274 273 1
a 274 275 1
a 275 235 1
a 275 315 1
a 275 274 1
a 275 276 1
a 276 275 1
a 276 277 1
a 277 237 1
a 277 276 1
a 277 278 1
a 278 238 1
a 278 277 1
a 278 279 1
a 279 239 1
a 279 278 1
a 282 242 1
a 284 244 1
a 284 285 1
a 285 325 1
a 285 284 1
a 285 286 1
a 286 246 1
a 286 285 1
a 288 248 1
a 291 292 1
a 292 291 1
a 292 293 1
a 293 253 1
a 293 292 1
a 293 294 1
a 294 293 1
a 294 295 1
a 295 255 1
a 295 335 1
a 295 294 1
a 295 296 1
a 296 256 1
a 296 336 1
a 296 295 1
a 301 341 1
a 303 343 1
a 303 304 1
a 304 344 1
a 304 303 1
a 304 305 1
a 305 265 1
a 305 304 1
a 305 306 1
a 306 266 1
a 306 346 1
a 306 305 1
a 306 307 1
a 307 347 1
a 307 306 1
a 309 269 1
a 313 273 1
a 313 353 1
a 315 275 1
a 315 355 1
a 320 360 1
a 321 361 1
a 325 285 1
a 327 367 1
a 329 369 1
a 335 295 1
a 335 336 1
a 336 296 1
a 336 376 1
a 336 335 1
a 336 337 1
a 337 336 1
a 337 338 1
a 338 378 1
a 338 337 1
a 340 380 1
a 340 341 1
a 341 301 1
a 341 340 1
a 341 342 1
a 342 382 1
a 342 341 1
a 342 343 1
a 343 303 1
a 343 342 1
a 343 344 1
a 344 304 1
a 344 343 1
a 346 306 1
a 346 347 1
a 347 307 1
a 347 387 1
a 347 346 1
a 352 353 1
a 353 313 1
a 353 352 1
a 355 315 1
a 355 356 1
a 356 355 1
a 356 357 1
a 357 397 1
a 357 356 1
a 357 358 1
a 358 398 1
a 358 357 1
a 360 320 1
a 361 321 1
a 361 401 1
a 361 362 1
a 362 361 1
a 362 363 1
a 363 362 1
a 366 406 1
a 366 367 1
a 367 327 1
a 367 407 1
a 367 366 1
a 367 368 1
a 368 367 1
a 368 369 1
a 369 329 1
a 369 368 1
a 371 372 1
a 372 412 1
a 372 371 1
a 372 373 1
a 373 372 1
a 373 374 1
a 374 414 1
a 374 373 1
a 376 336 1
a 376 416 1
a 378 338 1
a 378 418 1
a 378 379 1
a 379 378 1
a 379 380 1
a 380 340 1
a 380 379 1
a 382 342 1
a 382 422 1
a 385 425 1
a 387 347 1
a 387 427 1
a 387 388 1
a 388 387 1
a 397 357 1
a 397 437 1
a 397 398 1
a 398 358 1
a 398 438 1
a 398 397 1
a 398 399 1
a 399 398 1
a 401 361 1
a 404 444 1
a 406 366 1
a 406 446 1
a 406 407 1
a 407 367 1
a 407 406 1
a 410 450 1
a 412 372 1
a 414 374 1
a 414 415 1
a 415 414 1
a 415 416 1
a 416 376 1
a 416 456 1
a 416 415 1
a 418 378 1
a 421 461 1
a 421 422 1
a 422 382 1
a 422 421 1
a 422 423 1
a 423 422 1
a 425 385 1
a 425 426 1
a 426 425 1
a 426 427 1
a 427 387 1
a 427 426 1
a 429 469 1
a 431 471 1
a 431 432 1
a 432 472 1
a 432 431 1
a 432 433 1
a 433 432 1
a 436 476 1
a 436 437 1
a 437 397 1
a 437 436 1
a 437 438 1
a 438 398 1
a 438 437 1
a 440 480 1
a 443 483 1
a 443 444 1
a 444 404 1
a 444 484 1
a 444 443 1
a 446 406 1
a 448 488 1
a 448 449 1
a 449 448 1
a 449 450 1
a 450 410 1
a 450 490 1
a 450 449 1
a 456 416 1
a 456 496 1
a 456 457 1
a 457 497 1
a 457 456 1
a 459 460 1
a 460 500 1
a 460 459 1
a 460 461 1
a 461 421 1
a 461 501 1
a 461 460 1
a 468 508 1
a 468 469 1
a 469 429 1
a 469 509 1
a 469 468 1
a 471 431 1
a 471 511 1
a 471 472 1
a 472 432 1
a 472 512 1
a 472 471 1
a 475 515 1
a 475 476 1
a 476 436 1
a 476 516 1
a 476 475 1
a 479 519 1
a 479 480 1
a 480 440 1
a 480 520 1
a 480 479 1
a 483 443 1
a 483 484 1
a 484 444 1
a 484 524 1
a 484 483 1
a 488 448 1
a 490 450 1
a 490 530 1
a 490 491 1
a 491 531 1
a 491 490 1
a 496 456 1
a 496 536 1
a 496 497 1
a 497 457 1
a 497 537 1
a 497 496 1
a 500 460 1
a 500 501 1
a 501 461 1
a 501 541 1
a 501 500 1
a 503 543 1
a 505 506 1
a 506 505 1
a 506 507 1
a 507 547 1
a 507 506 1
a 507 508 1
a 508 468 1
a 508 548 1
a 508 507 1
a 508 509 1
a 509 469 1
a 509 508 1
a 509 510 1
a 510 550 1
a 510 509 1
a 510 511 1
a 511 471 1
a 511 510 1
a 511 512 1
a 512 472 1
a 512 511 1
a 512 513 1
a 513 553 1
a 513 512 1
a 513 514 1
a 514 513 1
a 514 515 1
a 515 475 1
a 515 555 1
a 515 514 1
a 515 516 1
a 516 476 1
a 516 556 1
a 516 515 1
a 516 517 1
a 517 557 1
a 517 516 1
a 517 518 1
a 518 558 1
a 518 517 1
a 518 519 1
a 519 479 1
a 519 559 1
a 519 518 1
a 519 520 1
a 520 480 1
a 520 560 1
a 520 519 1
a 521 561 1
a 524 484 1
a 524 564 1
a 524 525 1
a 525 524 1
a 525 526 1
a 526 566 1
a 526 525 1
a 526 527 1
a 527 526 1
a 529 569 1
a 529 530 1
a 530 490 1
a 530 529 1
a 530 531 1
a 531 491 1
a 531 571 1
a 531 530 1
a 531 532 1
a 532 572 1
a 532 531 1
a 532 533 1
a 533 532 1
a 533 534 1
a 534 533 1
a 536 496 1
a 536 576 1
a 536 537 1
a 537 497 1
a 537 536 1
a 539 579 1
a 541 501 1
a 541 542 1
a 542 541 1
a 542 543 1
a 543 503 1
a 543 542 1
a 543 544 1
a 544 584 1
a 544 543 1
a 547 507 1
a 547 548 1
a 548 508 1
a 548 547 1
a 550 510 1
a 553 513 1
a 555 515 1
a 555 556 1
a 556 516 1
a 556 555 1
a 556 557 1
a 557 517 1
a 557 556 1
a 557 558 1
a 558 518 1
a 558 598 1
a 558 557 1
a 558 559 1
a 559 519 1
a 559 599 1
a 559 558 1
a 559 560 1
a 560 520 1
a 560 559 1
a 561 521 1
a 561 601 1
a 561 562 1
a 562 602 1
a 562 561 1
a 564 524 1
a 564 604 1
a 566 526 1
a 566 606 1
a 568 608 1
a 568 569 1
a 569 529 1
a 569 609 1
a 569 568 1
a 571 531 1
a 571 611 1
a 571 572 1
a 572 532 1
a 572 571 1
a 576 536 1
a 576 616 1
a 578 618 1
a 578 579 1
a 579 539 1
a 579 578 1
a 584 544 1
a 584 585 1
a 585 625 1
a 585 584 1
a 585 586 1
a 586 585 1
a 589 629 1
a 592 632 1
a 594 634 1
a 598 558 1
a 598 638 1
a 598 599 1
a 599 559 1
a 599 639 1
a 599 598 1
a 601 561 1
a 601 641 1
a 601 602 1
a 602 562 1
a 602 642 1
a 602 601 1
a 602 603 1
a 603 643 1
a 603 602 1
a 603 604 1
a 604 564 1
a 604 644 1
a 604 603 1
a 604 605 1
a 605 645 1
a 605 604 1
a 605 606 1
a 606 566 1
a 606 646 1
a 606 605 1
a 608 568 1
a 608 648 1
a 608 609 1
a 609 569 1
a 609 649 1
a 609 608 1
a 609 610 1
a 610 650 1
a 610 609 1
a 610 611 1
a 611 571 1
a 611 610 1
a 614 615 1
a 615 655 1
a 615 614 1
a 615 616 1
a 616 576 1
a 616 656 1
a 616 615 1
a 616 617 1
a 617 657 1
a 617 616 1
a 617 618 1
a 618 578 1
a 618 658 1
a 618 617 1
a 622 623 1
a 623 622 1
a 625 585 1
a 625 665 1
a 628 668 1
a 628 629 1
a 629 589 1
a 629 669 1
a 629 628 1
a 632 592 1
a 634 594 1
a 636 637 1
a 637 636 1
a 637 638 1
a 638 598 1
a 638 678 1
a 638 637 1
a 638 639 1
a 639 599 1
a 639 638 1
a 641 601 1
a 641 681 1
a 641 642 1
a 642 602 1
a 642 682 1
a 642 641 1
a 642 643 1
a 643 603 1
a 643 683 1
a 643 642 1
a 643 644 1
a 644 604 1
a 644 684 1
a 644 643 1
a 644 645 1
a 645 605 1
a 645 685 1
a 645 644 1
a 645 646 1
a 646 606 1
a 646 645 1
a 648 608 1
a 648 688 1
a 648 649 1
a 649 609 1
a 649 689 1
a 649 648 1
a 649 650 1
a 650 610 1
a 650 690 1
a 650 649 1
a 652 653 1
a 653 693 1
a 653 652 1
a 655 615 1
a 655 656 1
a 656 616 1
a 656 696 1
a 656 655 1
a 656 657 1
a 657 617 1
a 657 656 1
a 657 658 1
a 658 618 1
a 658 698 1
a 658 657 1
a 658 659 1
a 659 658 1
a 659 660 1
a 660 700 1
a 660 659 1
a 664 665 1
a 665 625 1
a 665 705 1
a 665 664 1
a 667 707 1
a 667 668 1
a 668 628 1
a 668 667 1
a 668 669 1
a 669 629 1
a 669 709 1
a 669 668 1
a 669 670 1
a 670 710 1
a 670 669 1
a 670 671 1
a 671 670 1
a 673 713 1
a 678 638 1
a 681 641 1
a 681 721 1
a 681 682 1
a 682 642 1
a 682 722 1
a 682 681 1
a 682 683 1
a 683 643 1
a 683 723 1
a 683 682 1
a 683 684 1
a 684 644 1
a 684 724 1
a 684 683 1
a 684 685 1
a 685 645 1
a 685 725 1
a 685 684 1
a 687 688 1
a 688 648 1
a 688 728 1
a 688 687 1
a 688 689 1
a 689 649 1
a 689 729 1
a 689 688 1
a 689 690 1
a 690 650 1
a 690 730 1
a 690 689 1
a 693 653 1
a 696 656 1
a 698 658 1
a 698 738 1
a 700 660 1
a 700 740 1
a 702 703 1
a 703 743 1
a 703 702 1
a 705 665 1
a 707 667 1
a 707 747 1
a 709 669 1
a 709 710 1
a 710 670 1
a 710 709 1
a 712 752 1
a 712 713 1
a 713 673 1
a 713 753 1
a 713 712 1
a 719 720 1
a 720 760 1
a 720 719 1
a 721 681 1
a 721 761 1
a 721 722 1
a 722 682 1
a 722 721 1
a 722 723 1
a 723 683 1
a 723 722 1
a 723 724 1
a 724 684 1
a 724 764 1
a 724 723 1
a 724 725 1
a 725 685 1
a 725 724 1
a 728 688 1
a 728 729 1
a 729 689 1
a 729 769 1
a 729 728 1
a 729 730 1
a 730 690 1
a 730 729 1
a 730 731 1
a 731 771 1
a 731 730 1
a 734 774 1
a 737 777 1
a 737 738 1
a 738 698 1
a 738 778 1
a 738 737 1
a 740 700 1
a 743 703 1
a 743 744 1
a 744 743 1
a 747 707 1
a 747 787 1
a 751 791 1
a 751 752 1
a 752 712 1
a 752 751 1
a 752 753 1
a 753 713 1
a 753 793 1
a 753 752 1
a 753 754 1
a 754 753 1
a 760 720 1
a 760 800 1
a 761 721 1
a 764 724 1
a 764 804 1
a 766 806 1
a 769 729 1
a 769 809 1
a 771 731 1
a 773 813 1
a 773 774 1
a 774 734 1
a 774 814 1
a 774 773 1
a 774 775 1
a 775 774 1
a 775 776 1
a 776 816 1
a 776 775 1
a 776 777 1
a 777 737 1
a 777 776 1
a 777 778 1
a 778 738 1
a 778 818 1
a 778 777 1
a 778 779 1
a 779 778 1
a 782 822 1
a 785 786 1
a 786 826 1
a 786 785 1
a 786 787 1
a 787 747 1
a 787 827 1
a 787 786 1
a 787 788 1
a 788 828 1
a 788 787 1
a 790 791 1
a 791 751 1
a 791 831 1
a 791 790 1
a 793 753 1
a 796 797 1
a 797 796 1
a 799 839 1
a 799 800 1
a 800 760 1
a 800 799 1
a 803 804 1
a 804 764 1
a 804 803 1
a 804 805 1
a 805 804 1
a 805 806 1
a 806 766 1
a 806 846 1
a 806 805 1
a 808 848 1
a 808 809 1
a 809 769 1
a 809 808 1
a 809 810 1
a 810 850 1
a 810 809 1
a 812 852 1
a 812 813 1
a 813 773 1
a 813 853 1
a 813 812 1
a 813 814 1
a 814 774 1
a 814 813 1
a 816 776 1
a 816 856 1
a 818 778 1
a 818 858 1
a 820 860 1
a 822 782 1
a 822 862 1
a 822 823 1
a 823 863 1
a 823 822 1
a 826 786 1
a 826 866 1
a 826 827 1
a 827 787 1
a 827 826 1
a 827 828 1
a 828 788 1
a 828 868 1
a 828 827 1
a 831 791 1
a 831 871 1
a 831 832 1
a 832 872 1
a 832 831 1
a 838 839 1
a 839 799 1
a 839 838 1
a 846 806 1
a 848 808 1
a 848 888 1
a 850 810 1
a 850 851 1
a 851 850 1
a 851 852 1
a 852 812 1
a 852 892 1
a 852 851 1
a 852 853 1
a 853 813 1
a 853 893 1
a 853 852 1
a 855 895 1
a 855 856 1
a 856 816 1
a 856 896 1
a 856 855 1
a 856 857 1
a 857 897 1
a 857 856 1
a 857 858 1
a 858 818 1
a 858 898 1
a 858 857 1
a 858 859 1
a 859 899 1
a 859 858 1
a 859 860 1
a 860 820 1
a 860 900 1
a 860 859 1
a 862 822 1
a 862 902 1
a 862 863 1
a 863 823 1
a 863 903 1
a 863 862 1
a 863 864 1
a 864 904 1
a 864 863 1
a 866 826 1
a 866 906 1
a 868 828 1
a 868 869 1
a 869 909 1
a 869 868 1
a 871 831 1
a 871 872 1
a 872 832 1
a 872 912 1
a 872 871 1
a 872 873 1
a 873 913 1
a 873 872 1
a 873 874 1
a 874 873 1
a 876 916 1
a 876 877 1
a 877 876 1
a 882 922 1
a 887 888 1
a 888 848 1
a 888 887 1
a 888 889 1
a 889 929 1
a 889 888 1
a 892 852 1
a 892 893 1
a 893 853 1
a 893 933 1
a 893 892 1
a 893 894 1
a 894 934 1
a 894 893 1
a 894 895 1
a 895 855 1
a 895 935 1
a 895 894 1
a 895 896 1
a 896 856 1
a 896 936 1
a 896 895 1
a 896 897 1
a 897 857 1
a 897 896 1
a 897 898 1
a 898 858 1
a 898 938 1
a 898 897 1
a 898 899 1
a 899 859 1
a 899 898 1
a 899 900 1
a 900 860 1
a 900 899 1
a 900 901 1
a 901 900 1
a 901 902 1
a 902 862 1
a 902 942 1
a 902 901 1
a 902 903 1
a 903 863 1
a 903 902 1
a 903 904 1
a 904 864 1
a 904 903 1
a 904 905 1
a 905 945 1
a 905 904 1
a 905 906 1
a 906 866 1
a 906 946 1
a 906 905 1
a 906 907 1
a 907 906 1
a 909 869 1
a 909 949 1
a 912 872 1
a 912 913 1
a 913 873 1
a 913 953 1
a 913 912 1
a 915 955 1
a 915 916 1
a 916 876 1
a 916 915 1
a 918 958 1
a 920 960 1
a 921 961 1
a 921 922 1
a 922 882 1
a 922 921 1
a 922 923 1
a 923 922 1
a 926 966 1
a 929 889 1
a 929 969 1
a 929 930 1
a 930 970 1
a 930 929 1
a 930 931 1
a 931 971 1
a 931 930 1
a 933 893 1
a 933 934 1
a 934 894 1
a 934 933 1
a 934 935 1
a 935 895 1
a 935 934 1
a 935 936 1
a 936 896 1
a 936 976 1
a 936 935 1
a 938 898 1
a 938 978 1
a 942 902 1
a 942 982 1
a 945 905 1
a 945 985 1
a 945 946 1
a 946 906 1
a 946 945 1
a 948 988 1
a 948 949 1
a 949 909 1
a 949 948 1
a 949 950 1
a 950 990 1
a 950 949 1
a 950 951 1
a 951 991 1
a 951 950 1
a 953 913 1
a 953 993 1
a 955 915 1
a 957 958 1
a 958 918 1
a 958 998 1
a 958 957 1
a 960 920 1
a 961 921 1
a 964 1004 1
a 964 965 1
a 965 1005 1
a 965 964 1
a 965 966 1
a 966 926 1
a 966 1006 1
a 966 965 1
a 966 967 1
a 967 1007 1
a 967 966 1
a 969 929 1
a 969 1009 1
a 969 970 1
a 970 930 1
a 970 969 1
a 970 971 1
a 971 931 1
a 971 1011 1
a 971 970 1
a 971 972 1
a 972 1012 1
a 972 971 1
a 976 936 1
a 976 977 1
a 977 1017 1
a 977 976 1
a 977 978 1
a 978 938 1
a 978 1018 1
a 978 977 1
a 978 979 1
a 979 978 1
a 979 980 1
a 980 1020 1
a 980 979 1
a 980 981 1
a 981 1021 1
a 981 980 1
a 981 982 1
a 982 942 1
a 982 1022 1
a 982 981 1
a 982 983 1
a 983 1023 1
a 983 982 1
a 983 984 1
a 984 1024 1
a 984 983 1
a 984 985 1
a 985 945 1
a 985 984 1
a 988 948 1
a 988 1028 1
a 990 950 1
a 990 1030 1
a 990 991 1
a 991 951 1
a 991 1031 1
a 991 990 1
a 993 953 1
a 993 1033 1
a 993 994 1
a 994 1034 1
a 994 993 1
a 998 958 1
a 1002 1042 1
a 1004 964 1
a 1004 1044 1
a 1004 1005 1
a 1005 965 1
a 1005 1045 1
a 1005 1004 1
a 1005 1006 1
a 1006 966 1
a 1006 1005 1
a 1006 1007 1
a 1007 967 1
a 1007 1006 1
a 1009 969 1
a 1011 971 1
a 1011 1051 1
a 1011 1012 1
a 1012 972 1
a 1012 1052 1
a 1012 1011 1
a 1012 1013 1
a 1013 1053 1
a 1013 1012 1
a 1013 1014 1
a 1014 1013 1
a 1017 977 1
a 1017 1057 1
a 1017 1018 1
a 1018 978 1
a 1018 1058 1
a 1018 1017 1
a 1020 980 1
a 1020 1060 1
a 1020 1021 1
a 1021 981 1
a 1021 1020 1
a 1021 1022 1
a 1022 982 1
a 1022 1021 1
a 1022 1023 1
a 1023 983 1
a 1023 1063 1
a 1023 1022 1
a 1023 1024 1
a 1024 984 1
a 1024 1023 1
a 1028 988 1
a 1028 1029 1
a 1029 1028 1
a 1029 1030 1
a 1030 990 1
a 1030 1070 1
a 1030 1029 1
a 1030 1031 1
a 1031 991 1
a 1031 1030 1
a 1031 1032 1
a 1032 1072 1
a 1032 1031 1
a 1032 1033 1
a 1033 993 1
a 1033 1032 1
a 1033 1034 1
a 1034 994 1
a 1034 1074 1
a 1034 1033 1
a 1034 1035 1
a 1035 1075 1
a 1035 1034 1
a 1039 1040 1
a 1040 1080 1
a 1040 1039 1
a 1041 1081 1
a 1041 1042 1
a 1042 1002 1
a 1042 1041 1
a 1042 1043 1
a 1043 1083 1
a 1043 1042 1
a 1043 1044 1
a 1044 1004 1
a 1044 1084 1
a 1044 1043 1
a 1044 1045 1
a 1045 1005 1
a 1045 1085 1
a 1045 1044 1
a 1050 1090 1
a 1050 1051 1
a 1051 1011 1
a 1051 1091 1
a 1051 1050 1
a 1051 1052 1
a 1052 1012 1
a 1052 1051 1
a 1052 1053 1
a 1053 1013 1
a 1053 1052 1
a 1057 1017 1
a 1057 1058 1
a 1058 1018 1
a 1058 1098 1
a 1058 1057 1
a 1060 1020 1
a 1060 1100 1
a 1063 1023 1
a 1063 1103 1
a 1070 1030 1
a 1072 1032 1
a 1072 1112 1
a 1074 1034 1
a 1074 1075 1
a 1075 1035 1
a 1075 1115 1
a 1075 1074 1
a 1075 1076 1
a 1076 1116 1
a 1076 1075 1
a 1080 1040 1
a 1080 1120 1
a 1081 1041 1
a 1081 1121 1
a 1083 1043 1
a 1083 1123 1
a 1083 1084 1
a 1084 1044 1
a 1084 1124 1
a 1084 1083 1
a 1084 1085 1
a 1085 1045 1
a 1085 1125 1
a 1085 1084 1
a 1087 1127 1
a 1090 1050 1
a 1090 1130 1
a 1090 1091 1
a 1091 1051 1
a 1091 1090 1
a 1094 1134 1
a 1098 1058 1
a 1098 1138 1
a 1098 1099 1
a 1099 1139 1
a 1099 1098 1
a 1099 1100 1
a 1100 1060 1
a 1100 1140 1
a 1100 1099 1
a 1100 1101 1
a 1101 1141 1
a 1101 1100 1
a 1101 1102 1
a 1102 1101 1
a 1102 1103 1
a 1103 1063 1
a 1103 1143 1
a 1103 1102 1
a 1112 1072 1
a 1112 1113 1
a 1113 1153 1
a 1113 1112 1
a 1115 1075 1
a 1115 1155 1
a 1115 1116 1
a 1116 1076 1
a 1116 1156 1
a 1116 1115 1
a 1120 1080 1
a 1121 1081 1
a 1123 1083 1
a 1123 1163 1
a 1123 1124 1
a 1124 1084 1
a 1124 1123 1
a 1124 1125 1
a 1125 1085 1
a 1125 1165 1
a 1125 1124 1
a 1125 1126 1
a 1126 1125 1
a 1126 1127 1
a 1127 1087 1
a 1127 1167 1
a 1127 1126 1
a 1130 1090 1
a 1130 1170 1
a 1132 1172 1
a 1132 1133 1
a 1133 1132 1
a 1133 1134 1
a 1134 1094 1
a 1134 1133 1
a 1134 1135 1
a 1135 1175 1
a 1135 1134 1
a 1137 1177 1
a 1137 1138 1
a 1138 1098 1
a 1138 1178 1
a 1138 1137 1
a 1138 1139 1
a 1139 1099 1
a 1139 1179 1
a 1139 1138 1
a 1139 1140 1
a 1140 1100 1
a 1140 1139 1
a 1140 1141 1
a 1141 1101 1
a 1141 1181 1
a 1141 1140 1
a 1143 1103 1
a 1143 1183 1
a 1143 1144 1
a 1144 1184 1
a 1144 1143 1
a 1144 1145 1
a 1145 1144 1
a 1147 1187 1
a 1149 1189 1
a 1149 1150 1
a 1150 1190 1
a 1150 1149 1
a 1150 1151 1
a 1151 1191 1
a 1151 1150 1
a 1153 1113 1
a 1153 1154 1
a 1154 1194 1
a 1154 1153 1
a 1154 1155 1
a 1155 1115 1
a 1155 1154 1
a 1155 1156 1
a 1156 1116 1
a 1156 1196 1
a 1156 1155 1
a 1162 1202 1
a 1162 1163 1
a 1163 1123 1
a 1163 1203 1
a 1163 1162 1
a 1165 1125 1
a 1165 1205 1
a 1167 1127 1
a 1167 1168 1
a 1168 1167 1
a 1170 1130 1
a 1170 1210 1
a 1172 1132 1
a 1175 1135 1
a 1175 1215 1
a 1175 1176 1
a 1176 1216 1
a 1176 1175 1
a 1176 1177 1
a 1177 1137 1
a 1177 1176 1
a 1177 1178 1
a 1178 1138 1
a 1178 1177 1
a 1178 1179 1
a 1179 1139 1
a 1179 1178 1
a 1181 1141 1
a 1181 1221 1
a 1183 1143 1
a 1183 1184 1
a 1184 1144 1
a 1184 1183 1
a 1186 1226 1
a 1186 1187 1
a 1187 1147 1
a 1187 1227 1
a 1187 1186 1
a 1189 1149 1
a 1189 1229 1
a 1189 1190 1
a 1190 1150 1
a 1190 1230 1
a 1190 1189 1
a 1190 1191 1
a 1191 1151 1
a 1191 1231 1
a 1191 1190 1
a 1191 1192 1
a 1192 1232 1
a 1192 1191 1
a 1194 1154 1
a 1194 1234 1
a 1196 1156 1
a 1196 1197 1
a 1197 1196 1
a 1197 1198 1
a 1198 1197 1
a 1200 1240 1
a 1201 1241 1
a 1201 1202 1
a 1202 1162 1
a 1202 1201 1
a 1202 1203 1
a 1203 1163 1
a 1203 1243 1
a 1203 1202 1
a 1205 1165 1
a 1205 1245 1
a 1210 1170 1
a 1210 1250 1
a 1213 1253 1
a 1213 1214 1
a 1214 1213 1
a 1214 1215 1
a 1215 1175 1
a 1215 1214 1
a 1215 1216 1
a 1216 1176 1
a 1216 1215 1
a 1220 1260 1
a 1220 1221 1
a 1221 1181 1
a 1221 1261 1
a 1221 1220 1
a 1226 1186 1
a 1226 1266 1
a 1226 1227 1
a 1227 1187 1
a 1227 1267 1
a 1227 1226 1
a 1229 1189 1
a 1229 1269 1
a 1229 1230 1
a 1230 1190 1
a 1230 1270 1
a 1230 1229 1
a 1230 1231 1
a 1231 1191 1
a 1231 1271 1
a 1231 1230 1
a 1231 1232 1
a 1232 1192 1
a 1232 1272 1
a 1232 1231 1
a 1232 1233 1
a 1233 1232 1
a 1233 1234 1
a 1234 1194 1
a 1234 1233 1
a 1239 1240 1
a 1240 1200 1
a 1240 1239 1
a 1241 1201 1
a 1243 1203 1
a 1243 1283 1
a 1245 1205 1
a 1245 1285 1
a 1247 1287 1
a 1247 1248 1
a 1248 1247 1
a 1250 1210 1
a 1250 1251 1
a 1251 1291 1
a 1251 1250 1
a 1253 1213 1
a 1260 1220 1
a 1260 1300 1
a 1260 1261 1
a 1261 1221 1
a 1261 1260 1
a 1261 1262 1
a 1262 1302 1
a 1262 1261 1
a 1264 1265 1
a 1265 1305 1
a 1265 1264 1
a 1265 1266 1
a 1266 1226 1
a 1266 1306 1
a 1266 1265 1
a 1266 1267 1
a 1267 1227 1
a 1267 1266 1
a 1267 1268 1
a 1268 1267 1
a 1268 1269 1
a 1269 1229 1
a 1269 1309 1
a 1269 1268 1
a 1269 1270 1
a 1270 1230 1
a 1270 1310 1
a 1270 1269 1
a 1270 1271 1
a 1271 1231 1
a 1271 1270 1
a 1271 1272 1
a 1272 1232 1
a 1272 1271 1
a 1276 1316 1
a 1276 1277 1
a 1277 1317 1
a 1277 1276 1
a 1277 1278 1
a 1278 1318 1
a 1278 1277 1
a 1282 1283 1
a 1283 1243 1
a 1283 1323 1
a 1283 1282 1
a 1283 1284 1
a 1284 1283 1
a 1284 1285 1
a 1285 1245 1
a 1285 1325 1
a 1285 1284 1
a 1285 1286 1
a 1286 1285 1
a 1286 1287 1
a 1287 1247 1
a 1287 1286 1
a 1291 1251 1
a 1291 1331 1
a 1291 1292 1
a 1292 1332 1
a 1292 1291 1
a 1294 1334 1
a 1296 1336 1
a 1299 1339 1
a 1299 1300 1
a 1300 1260 1
a 1300 1340 1
a 1300 1299 1
a 1302 1262 1
a 1302 1342 1
a 1302 1303 1
a 1303 1302 1
a 1305 1265 1
a 1305 1306 1
a 1306 1266 1
a 1306 1346 1
a 1306 1305 1
a 1309 1269 1
a 1309 1310 1
a 1310 1270 1
a 1310 1350 1
a 1310 1309 1
a 1313 1353 1
a 1313 1314 1
a 1314 1313 1
a 1314 1315 1
a 1315 1314 1
a 1315 1316 1
a 1316 1276 1
a 1316 1315 1
a 1316 1317 1
a 1317 1277 1
a 1317 1316 1
a 1317 1318 1
a 1318 1278 1
a 1318 1317 1
a 1318 1319 1
a 1319 1359 1
a 1319 1318 1
a 1323 1283 1
a 1325 1285 1
a 1329 1369 1
a 1329 1330 1
a 1330 1370 1
a 1330 1329 1
a 1330 1331 1
a 1331 1291 1
a 1331 1371 1
a 1331 1330 1
a 1331 1332 1
a 1332 1292 1
a 1332 1331 1
a 1334 1294 1
a 1334 1335 1
a 1335 1375 1
a 1335 1334 1
a 1335 1336 1
a 1336 1296 1
a 1336 1376 1
a 1336 1335 1
a 1338 1339 1
a 1339 1299 1
a 1339 1379 1
a 1339 1338 1
a 1339 1340 1
a 1340 1300 1
a 1340 1380 1
a 1340 1339 1
a 1342 1302 1
a 1342 1382 1
a 1346 1306 1
a 1346 1386 1
a 1348 1388 1
a 1350 1310 1
a 1350 1390 1
a 1350 1351 1
a 1351 1391 1
a 1351 1350 1
a 1351 1352 1
a 1352 1392 1
a 1352 1351 1
a 1352 1353 1
a 1353 1313 1
a 1353 1352 1
a 1359 1319 1
a 1359 1399 1
a 1361 1401 1
a 1361 1362 1
a 1362 1402 1
a 1362 1361 1
a 1364 1404 1
a 1367 1407 1
a 1369 1329 1
a 1369 1370 1
a 1370 1330 1
a 1370 1369 1
a 1370 1371 1
a 1371 1331 1
a 1371 1411 1
a 1371 1370 1
a 1375 1335 1
a 1375 1415 1
a 1375 1376 1
a 1376 1336 1
a 1376 1416 1
a 1376 1375 1
a 1376 1377 1
a 1377 1376 1
a 1379 1339 1
a 1379 1419 1
a 1379 1380 1
a 1380 1340 1
a 1380 1379 1
a 1382 1342 1
a 1384 1424 1
a 1384 1385 1
a 1385 1425 1
a 1385 1384 1
a 1385 1386 1
a 1386 1346 1
a 1386 1426 1
a 1386 1385 1
a 1388 1348 1
a 1390 1350 1
a 1390 1430 1
a 1390 1391 1
a 1391 1351 1
a 1391 1431 1
a 1391 1390 1
a 1391 1392 1
a 1392 1352 1
a 1392 1432 1
a 1392 1391 1
a 1398 1438 1
a 1398 1399 1
a 1399 1359 1
a 1399 1439 1
a 1399 1398 1
a 1399 1400 1
a 1400 1440 1
a 1400 1399 1
a 1401 1361 1
a 1401 1402 1
a 1402 1362 1
a 1402 1401 1
a 1402 1403 1
a 1403 1443 1
a 1403 1402 1
a 1403 1404 1
a 1404 1364 1
a 1404 1403 1
a 1407 1367 1
a 1407 1447 1
a 1407 1408 1
a 1408 1448 1
a 1408 1407 1
a 1411 1371 1
a 1411 1451 1
a 1411 1412 1
a 1412 1411 1
a 1414 1454 1
a 1414 1415 1
a 1415 1375 1
a 1415 1414 1
a 1415 1416 1
a 1416 1376 1
a 1416 1456 1
a 1416 1415 1
a 1418 1458 1
a 1418 1419 1
a 1419 1379 1
a 1419 1418 1
a 1421 1461 1
a 1423 1463 1
a 1423 1424 1
a 1424 1384 1
a 1424 1464 1
a 1424 1423 1
a 1424 1425 1
a 1425 1385 1
a 1425 1465 1
a 1425 1424 1
a 1425 1426 1
a 1426 1386 1
a 1426 1425 1
a 1426 1427 1
a 1427 1426 1
a 1429 1469 1
a 1429 1430 1
a 1430 1390 1
a 1430 1470 1
a 1430 1429 1
a 1430 1431 1
a 1431 1391 1
a 1431 1471 1
a 1431 1430 1
a 1431 1432 1
a 1432 1392 1
a 1432 1472 1
a 1432 1431 1
a 1437 1477 1
a 1437 1438 1
a 1438 1398 1
a 1438 1437 1
a 1438 1439 1
a 1439 1399 1
a 1439 1479 1
a 1439 1438 1
a 1439 1440 1
a 1440 1400 1
a 1440 1480 1
a 1440 1439 1
a 1443 1403 1
a 1445 1485 1
a 1447 1407 1
a 1447 1448 1
a 1448 1408 1
a 1448 1447 1
a 1450 1451 1
a 1451 1411 1
a 1451 1491 1
a 1451 1450 1
a 1454 1414 1
a 1454 1494 1
a 1456 1416 1
a 1456 1496 1
a 1458 1418 1
a 1458 1498 1
a 1460 1500 1
a 1460 1461 1
a 1461 1421 1
a 1461 1460 1
a 1461 1462 1
a 1462 1502 1
a 1462 1461 1
a 1462 1463 1
a 1463 1423 1
a 1463 1503 1
a 1463 1462 1
a 1463 1464 1
a 1464 1424 1
a 1464 1504 1
a 1464 1463 1
a 1464 1465 1
a 1465 1425 1
a 1465 1505 1
a 1465 1464 1
a 1468 1508 1
a 1468 1469 1
a 1469 1429 1
a 1469 1509 1
a 1469 1468 1
a 1469 1470 1
a 1470 1430 1
a 1470 1510 1
a 1470 1469 1
a 1470 1471 1
a 1471 1431 1
a 1471 1470 1
a 1471 1472 1
a 1472 1432 1
a 1472 1512 1
a 1472 1471 1
a 1475 1515 1
a 1477 1437 1
a 1477 1517 1
a 1479 1439 1
a 1479 1480 1
a 1480 1440 1
a 1480 1520 1
a 1480 1479 1
a 1481 1482 1
a 1482 1522 1
a 1482 1481 1
a 1484 1524 1
a 1484 1485 1
a 1485 1445 1
a 1485 1525 1
a 1485 1484 1
a 1485 1486 1
a 1486 1526 1
a 1486 1485 1
a 1491 1451 1
a 1491 1492 1
a 1492 1491 1
a 1492 1493 1
a 1493 1492 1
a 1493 1494 1
a 1494 1454 1
a 1494 1493 1
a 1494 1495 1
a 1495 1535 1
a 1495 1494 1
a 1495 1496 1
a 1496 1456 1
a 1496 1536 1
a 1496 1495 1
a 1496 1497 1
a 1497 1496 1
a 1497 1498 1
a 1498 1458 1
a 1498 1538 1
a 1498 1497 1
a 1500 1460 1
a 1500 1540 1
a 1502 1462 1
a 1502 1542 1
a 1502 1503 1
a 1503 1463 1
a 1503 1543 1
a 1503 1502 1
a 1503 1504 1
a 1504 1464 1
a 1504 1544 1
a 1504 1503 1
a 1504 1505 1
a 1505 1465 1
a 1505 1545 1
a 1505 1504 1
a 1505 1506 1
a 1506 1546 1
a 1506 1505 1
a 1508 1468 1
a 1508 1548 1
a 1508 1509 1
a 1509 1469 1
a 1509 1549 1
a 1509 1508 1
a 1509 1510 1
a 1510 1470 1
a 1510 1509 1
a 1512 1472 1
a 1512 1552 1
a 1512 1513 1
a 1513 1512 1
a 1515 1475 1
a 1515 1555 1
a 1517 1477 1
a 1520 1480 1
a 1520 1560 1
a 1522 1482 1
a 1522 1562 1
a 1522 1523 1
a 1523 1563 1
a 1523 1522 1
a 1523 1524 1
a 1524 1484 1
a 1524 1564 1
a 1524 1523 1
a 1524 1525 1
a 1525 1485 1
a 1525 1565 1
a 1525 1524 1
a 1525 1526 1
a 1526 1486 1
a 1526 1566 1
a 1526 1525 1
a 1529 1530 1
a 1530 1529 1
a 1535 1495 1
a 1535 1575 1
a 1535 1536 1
a 1536 1496 1
a 1536 1535 1
a 1538 1498 1
a 1538 1539 1
a 1539 1538 1
a 1539 1540 1
a 1540 1500 1
a 1540 1539 1
a 1542 1502 1
a 1542 1543 1
a 1543 1503 1
a 1543 1583 1
a 1543 1542 1
a 1543 1544 1
a 1544 1504 1
a 1544 1584 1
a 1544 1543 1
a 1544 1545 1
a 1545 1505 1
a 1545 1544 1
a 1545 1546 1
a 1546 1506 1
a 1546 1586 1
a 1546 1545 1
a 1546 1547 1
a 1547 1546 1
a 1547 1548 1
a 1548 1508 1
a 1548 1588 1
a 1548 1547 1
a 1548 1549 1
a 1549 1509 1
a 1549 1548 1
a 1551 1591 1
a 1551 1552 1
a 1552 1512 1
a 1552 1592 1
a 1552 1551 1
a 1555 1515 1
a 1555 1595 1
a 1555 1556 1
a 1556 1596 1
a 1556 1555 1
a 1558 1559 1
a 1559 1558 1
a 1559 1560 1
a 1560 1520 1
a 1560 1600 1
a 1560 1559 1
a 1562 1522 1
a 1562 1563 1
a 1563 1523 1
a 1563 1562 1
a 1563 1564 1
a 1564 1524 1
a 1564 1563 1
a 1564 1565 1
a 1565 1525 1
a 1565 1564 1
a 1565 1566 1
a 1566 1526 1
a 1566 1565 1
a 1573 1574 1
a 1574 1573 1
a 1574 1575 1
a 1575 1535 1
a 1575 1574 1
a 1583 1543 1
a 1583 1584 1
a 1584 1544 1
a 1584 1583 1
a 1586 1546 1
a 1588 1548 1
a 1590 1591 1
a 1591 1551 1
a 1591 1590 1
a 1591 1592 1
a 1592 1552 1
a 1592 1591 1
a 1592 1593 1
a 1593 1592 1
a 1595 1555 1
a 1595 1596 1
a 1596 1556 1
a 1596 1595 1
a 1600 1560 1
